WARNING: for repeatability, setting FPU to use double precision
============================[ Problem Statistics ]=============================
|                                                                             |
|  Number of variables:           100                                         |
|  Number of clauses:             449                                         |
|  Parse time:                   0.00 s                                       |
|  Eliminated clauses:           0.00 Mb                                      |
|  Simplification time:          0.00 s                                       |
|                                                                             |
============================[ Search Statistics ]==============================
| Conflicts |          ORIGINAL         |          LEARNT          | Progress |
|           |    Vars  Clauses Literals |    Limit  Clauses Lit/Cl |          |
===============================================================================
|       100 |      97      446     1361 |      163      100      7 |  0.021 % |
|       250 |      96      436     1331 |      179      109      6 |  1.041 % |
===============================================================================
restarts              : 3
conflicts             : 327            (90008 /sec)
decisions             : 408            (0.00 % random) (112304 /sec)
propagations          : 7584           (2087531 /sec)
conflict literals     : 1887           (23.57 % deleted)
Memory used           : 13.00 MB
CPU time              : 0.003633 s

SATISFIABLE
